GLPSOL--GLPK LP/MIP Solver 5.0
Parameter(s) specified in the command line:
 --lp ../modeles/3_469.lp --log 3_469.log
Reading problem data from '../modeles/3_469.lp'...
1420 rows, 2820 columns, 9864 non-zeros
1407 integer variables, all of which are binary
4249 lines were read
GLPK Integer Optimizer 5.0
1420 rows, 2820 columns, 9864 non-zeros
1407 integer variables, all of which are binary
Preprocessing...
1398 constraint coefficient(s) were reduced
1420 rows, 2817 columns, 9861 non-zeros
1407 integer variables, all of which are binary
Scaling...
 A: min|aij| =  1.819e-05  max|aij| =  4.000e+00  ratio =  2.200e+05
GM: min|aij| =  4.618e-02  max|aij| =  2.166e+01  ratio =  4.690e+02
EQ: min|aij| =  2.132e-03  max|aij| =  1.000e+00  ratio =  4.690e+02
2N: min|aij| =  1.953e-03  max|aij| =  1.765e+00  ratio =  9.038e+02
Constructing initial basis...
Size of triangular part is 1420
Solving LP relaxation...
GLPK Simplex Optimizer 5.0
1420 rows, 2817 columns, 9861 non-zeros
      0: obj =   6.000000000e+00 inf =   1.450e+01 (7)
     74: obj =   4.999749955e-01 inf =   0.000e+00 (0)
*   239: obj =  -1.732021353e+00 inf =   6.872e-16 (0)
OPTIMAL LP SOLUTION FOUND
Integer optimization begins...
Long-step dual simplex will be used
+   239: mip =     not found yet >=              -inf        (1; 0)
+   518: >>>>>  -1.731967826e+00 >=  -1.732021353e+00 < 0.1% (272; 0)
+   519: >>>>>  -1.732021353e+00 >=  -1.732021353e+00 < 0.1% (2; 271)
+   519: mip =  -1.732021353e+00 >=     tree is empty   0.0% (0; 543)
INTEGER OPTIMAL SOLUTION FOUND
Time used:   0.5 secs
Memory used: 4.2 Mb (4413429 bytes)
